c File: flat300_26_0.col
c
c SOURCE: Joseph Culberson (joe@cs.ualberta.ca)
c DESCRIPTION: Quasi-random coloring problem
c              generated with flatness = 0
c                             probability = 0.500
c                             known coloring = 26
c                             random seed = 200191231
c              Creation Date:  Mon Sep 19 08:23:20 1994
c Maximum degree = 158 Minimum degree = 123
c COLOR VERIFICATION: Using the permuted order
c under simple greedy yields the specified
c coloring number
c Color = 26 specified partitions = 26
p edge 300 21633
e 2 1
e 3 2
e 4 3
e 5 1
e 6 1
e 6 4
e 6 5
e 7 1
e 7 2
e 7 5
e 8 1
e 8 2
e 8 3
e 8 6
e 8 7
e 9 3
e 9 4
e 9 5
e 9 8
e 10 1
e 10 2
e 10 3
e 10 4
e 10 5
e 10 7
e 11 1
e 11 4
e 11 5
e 11 6
e 11 9
e 11 10
e 12 3
e 12 6
e 12 7
e 12 8
e 12 10
e 13 1
e 13 3
e 13 4
e 13 5
e 13 6
e 13 7
e 13 9
e 13 11
e 14 1
e 14 3
e 14 9
e 14 10
e 14 12
e 14 13
e 15 2
e 15 3
e 15 4
e 15 5
e 15 8
e 15 9
e 15 11
e 15 12
e 15 14
e 16 4
e 16 7
e 16 9
e 16 13
e 17 2
e 17 3
e 17 6
e 17 7
e 17 11
e 17 13
e 17 14
e 17 16
e 18 2
e 18 5
e 18 7
e 18 8
e 18 10
e 18 11
e 19 5
e 19 7
e 19 9
e 19 12
e 19 13
e 19 14
e 19 16
e 19 17
e 19 18
e 20 4
e 20 7
e 20 9
e 20 10
e 20 14
e 20 16
e 20 18
e 21 1
e 21 2
e 21 4
e 21 5
e 21 6
e 21 7
e 21 10
e 21 12
e 21 13
e 21 15
e 21 17
e 21 18
e 21 19
e 21 20
e 22 1
e 22 5
e 22 6
e 22 8
e 22 10
e 22 11
e 22 13
e 22 14
e 22 15
e 22 18
e 22 20
e 22 21
e 23 1
e 23 2
e 23 6
e 23 7
e 23 8
e 23 9
e 23 12
e 23 16
e 23 19
e 24 2
e 24 4
e 24 10
e 24 11
e 24 12
e 24 14
e 24 15
e 24 16
e 24 17
e 24 19
e 24 23
e 25 2
e 25 3
e 25 5
e 25 6
e 25 10
e 25 12
e 25 15
e 25 16
e 25 17
e 25 21
e 25 23
e 26 2
e 26 3
e 26 4
e 26 6
e 26 7
e 26 8
e 26 9
e 26 11
e 26 13
e 26 15
e 26 18
e 26 22
e 26 24
e 27 1
e 27 3
e 27 7
e 27 10
e 27 12
e 27 18
e 27 26
e 28 1
e 28 2
e 28 4
e 28 5
e 28 6
e 28 7
e 28 8
e 28 9
e 28 10
e 28 15
e 28 20
e 28 21
e 28 25
e 28 26
e 28 27
e 29 3
e 29 5
e 29 7
e 29 8
e 29 9
e 29 14
e 29 15
e 29 17
e 29 18
e 29 19
e 29 20
e 29 22
e 29 24
e 29 25
e 29 26
e 29 28
e 30 1
e 30 6
e 30 7
e 30 10
e 30 14
e 30 16
e 30 17
e 30 18
e 30 19
e 30 20
e 30 21
e 30 23
e 30 24
e 30 27
e 30 28
e 31 3
e 31 4
e 31 6
e 31 7
e 31 8
e 31 12
e 31 15
e 31 17
e 31 18
e 31 20
e 31 23
e 31 24
e 31 26
e 31 28
e 32 3
e 32 5
e 32 8
e 32 14
e 32 17
e 32 19
e 32 20
e 32 24
e 32 25
e 32 28
e 32 29
e 32 31
e 33 4
e 33 5
e 33 9
e 33 10
e 33 14
e 33 15
e 33 16
e 33 18
e 33 21
e 33 22
e 33 23
e 33 27
e 33 28
e 33 31
e 33 32
e 34 1
e 34 3
e 34 4
e 34 5
e 34 6
e 34 11
e 34 14
e 34 15
e 34 17
e 34 18
e 34 20
e 34 21
e 34 22
e 34 24
e 34 27
e 34 29
e 34 32
e 35 3
e 35 5
e 35 6
e 35 7
e 35 9
e 35 10
e 35 12
e 35 14
e 35 15
e 35 17
e 35 18
e 35 19
e 35 21
e 35 24
e 35 25
e 35 26
e 35 29
e 36 2
e 36 3
e 36 5
e 36 8
e 36 9
e 36 10
e 36 12
e 36 13
e 36 15
e 36 16
e 36 17
e 36 18
e 36 21
e 36 27
e 36 29
e 36 34
e 37 1
e 37 3
e 37 4
e 37 11
e 37 12
e 37 14
e 37 16
e 37 19
e 37 20
e 37 23
e 37 26
e 37 30
e 37 32
e 38 1
e 38 2
e 38 3
e 38 5
e 38 9
e 38 10
e 38 11
e 38 13
e 38 14
e 38 15
e 38 18
e 38 19
e 38 20
e 38 21
e 38 24
e 38 25
e 38 26
e 38 29
e 38 31
e 38 32
e 38 35
e 38 36
e 38 37
